c cksystemsgroup.github.io/unicorn
c CNF contains a total of 548 clauses.
c CNF contains a total of 169 variables.
c CNF clauses cover 1 bad states.
c Variable name mapping (49 names):
c   2: input[bit=23]
c   5: input[bit=22]
c   8: input[bit=21]
c   11: input[bit=20]
c   14: input[bit=19]
c   17: input[bit=18]
c   20: input[bit=17]
c   23: input[bit=16]
c   26: input[bit=15]
c   29: input[bit=14]
c   32: input[bit=13]
c   35: input[bit=12]
c   38: input[bit=11]
c   41: input[bit=10]
c   44: input[bit=9]
c   47: input[bit=8]
c   50: input[bit=7]
c   53: input[bit=6]
c   56: input[bit=5]
c   59: input[bit=4]
c   62: input[bit=3]
c   65: input[bit=2]
c   68: input[bit=1]
c   71: input[bit=0]
c   97: input[bit=23]
c   99: input[bit=22]
c   101: input[bit=21]
c   103: input[bit=20]
c   105: input[bit=19]
c   107: input[bit=18]
c   109: input[bit=17]
c   111: input[bit=16]
c   113: input[bit=15]
c   115: input[bit=14]
c   117: input[bit=13]
c   119: input[bit=12]
c   121: input[bit=11]
c   123: input[bit=10]
c   125: input[bit=9]
c   127: input[bit=8]
c   129: input[bit=7]
c   131: input[bit=6]
c   133: input[bit=5]
c   135: input[bit=4]
c   137: input[bit=3]
c   139: input[bit=2]
c   141: input[bit=1]
c   143: input[bit=0]
c   169: ?
p cnf 169 548
-1 0
-2 -3 0
2 3 0
-4 0
-5 -6 0
5 6 0
-7 0
-8 -9 0
8 9 0
-10 0
-11 -12 0
11 12 0
-13 0
-14 -15 0
14 15 0
-16 0
-17 -18 0
17 18 0
-19 0
-20 -21 0
20 21 0
-22 0
-23 -24 0
23 24 0
-25 0
-26 -27 0
26 27 0
-28 0
-29 -30 0
29 30 0
-31 0
-32 -33 0
32 33 0
-34 0
-35 -36 0
35 36 0
-37 0
-38 -39 0
38 39 0
-40 0
-41 -42 0
41 42 0
-43 0
-44 -45 0
44 45 0
-46 0
-47 -48 0
47 48 0
-49 0
-50 -51 0
50 51 0
-52 0
-53 -54 0
53 54 0
-55 0
-56 -57 0
56 57 0
-58 0
-59 -60 0
59 60 0
-61 0
-62 -63 0
62 63 0
-64 0
-65 -66 0
65 66 0
-67 0
-68 -69 0
68 69 0
-70 0
-71 -72 0
71 72 0
69 70 -73 0
69 72 -73 0
-70 -72 73 0
70 72 -73 0
-69 -72 73 0
-69 -70 73 0
66 67 -74 0
66 73 -74 0
-67 -73 74 0
67 73 -74 0
-66 -73 74 0
-66 -67 74 0
63 64 -75 0
63 74 -75 0
-64 -74 75 0
64 74 -75 0
-63 -74 75 0
-63 -64 75 0
60 61 -76 0
60 75 -76 0
-61 -75 76 0
61 75 -76 0
-60 -75 76 0
-60 -61 76 0
57 58 -77 0
57 76 -77 0
-58 -76 77 0
58 76 -77 0
-57 -76 77 0
-57 -58 77 0
54 55 -78 0
54 77 -78 0
-55 -77 78 0
55 77 -78 0
-54 -77 78 0
-54 -55 78 0
51 52 -79 0
51 78 -79 0
-52 -78 79 0
52 78 -79 0
-51 -78 79 0
-51 -52 79 0
48 49 -80 0
48 79 -80 0
-49 -79 80 0
49 79 -80 0
-48 -79 80 0
-48 -49 80 0
45 46 -81 0
45 80 -81 0
-46 -80 81 0
46 80 -81 0
-45 -80 81 0
-45 -46 81 0
42 43 -82 0
42 81 -82 0
-43 -81 82 0
43 81 -82 0
-42 -81 82 0
-42 -43 82 0
39 40 -83 0
39 82 -83 0
-40 -82 83 0
40 82 -83 0
-39 -82 83 0
-39 -40 83 0
36 37 -84 0
36 83 -84 0
-37 -83 84 0
37 83 -84 0
-36 -83 84 0
-36 -37 84 0
33 34 -85 0
33 84 -85 0
-34 -84 85 0
34 84 -85 0
-33 -84 85 0
-33 -34 85 0
30 31 -86 0
30 85 -86 0
-31 -85 86 0
31 85 -86 0
-30 -85 86 0
-30 -31 86 0
27 28 -87 0
27 86 -87 0
-28 -86 87 0
28 86 -87 0
-27 -86 87 0
-27 -28 87 0
24 25 -88 0
24 87 -88 0
-25 -87 88 0
25 87 -88 0
-24 -87 88 0
-24 -25 88 0
21 22 -89 0
21 88 -89 0
-22 -88 89 0
22 88 -89 0
-21 -88 89 0
-21 -22 89 0
18 19 -90 0
18 89 -90 0
-19 -89 90 0
19 89 -90 0
-18 -89 90 0
-18 -19 90 0
15 16 -91 0
15 90 -91 0
-16 -90 91 0
16 90 -91 0
-15 -90 91 0
-15 -16 91 0
12 13 -92 0
12 91 -92 0
-13 -91 92 0
13 91 -92 0
-12 -91 92 0
-12 -13 92 0
9 10 -93 0
9 92 -93 0
-10 -92 93 0
10 92 -93 0
-9 -92 93 0
-9 -10 93 0
6 7 -94 0
6 93 -94 0
-7 -93 94 0
7 93 -94 0
-6 -93 94 0
-6 -7 94 0
3 4 -95 0
3 94 -95 0
-4 -94 95 0
4 94 -95 0
-3 -94 95 0
-3 -4 95 0
-95 -96 0
95 96 0
3 4 94 -98 0
3 4 -94 98 0
3 -4 94 98 0
3 -4 -94 -98 0
-3 4 94 98 0
-3 4 -94 -98 0
-3 -4 94 -98 0
-3 -4 -94 98 0
6 7 93 -100 0
6 7 -93 100 0
6 -7 93 100 0
6 -7 -93 -100 0
-6 7 93 100 0
-6 7 -93 -100 0
-6 -7 93 -100 0
-6 -7 -93 100 0
9 10 92 -102 0
9 10 -92 102 0
9 -10 92 102 0
9 -10 -92 -102 0
-9 10 92 102 0
-9 10 -92 -102 0
-9 -10 92 -102 0
-9 -10 -92 102 0
12 13 91 -104 0
12 13 -91 104 0
12 -13 91 104 0
12 -13 -91 -104 0
-12 13 91 104 0
-12 13 -91 -104 0
-12 -13 91 -104 0
-12 -13 -91 104 0
15 16 90 -106 0
15 16 -90 106 0
15 -16 90 106 0
15 -16 -90 -106 0
-15 16 90 106 0
-15 16 -90 -106 0
-15 -16 90 -106 0
-15 -16 -90 106 0
18 19 89 -108 0
18 19 -89 108 0
18 -19 89 108 0
18 -19 -89 -108 0
-18 19 89 108 0
-18 19 -89 -108 0
-18 -19 89 -108 0
-18 -19 -89 108 0
21 22 88 -110 0
21 22 -88 110 0
21 -22 88 110 0
21 -22 -88 -110 0
-21 22 88 110 0
-21 22 -88 -110 0
-21 -22 88 -110 0
-21 -22 -88 110 0
24 25 87 -112 0
24 25 -87 112 0
24 -25 87 112 0
24 -25 -87 -112 0
-24 25 87 112 0
-24 25 -87 -112 0
-24 -25 87 -112 0
-24 -25 -87 112 0
27 28 86 -114 0
27 28 -86 114 0
27 -28 86 114 0
27 -28 -86 -114 0
-27 28 86 114 0
-27 28 -86 -114 0
-27 -28 86 -114 0
-27 -28 -86 114 0
30 31 85 -116 0
30 31 -85 116 0
30 -31 85 116 0
30 -31 -85 -116 0
-30 31 85 116 0
-30 31 -85 -116 0
-30 -31 85 -116 0
-30 -31 -85 116 0
33 34 84 -118 0
33 34 -84 118 0
33 -34 84 118 0
33 -34 -84 -118 0
-33 34 84 118 0
-33 34 -84 -118 0
-33 -34 84 -118 0
-33 -34 -84 118 0
36 37 83 -120 0
36 37 -83 120 0
36 -37 83 120 0
36 -37 -83 -120 0
-36 37 83 120 0
-36 37 -83 -120 0
-36 -37 83 -120 0
-36 -37 -83 120 0
39 40 82 -122 0
39 40 -82 122 0
39 -40 82 122 0
39 -40 -82 -122 0
-39 40 82 122 0
-39 40 -82 -122 0
-39 -40 82 -122 0
-39 -40 -82 122 0
42 43 81 -124 0
42 43 -81 124 0
42 -43 81 124 0
42 -43 -81 -124 0
-42 43 81 124 0
-42 43 -81 -124 0
-42 -43 81 -124 0
-42 -43 -81 124 0
45 46 80 -126 0
45 46 -80 126 0
45 -46 80 126 0
45 -46 -80 -126 0
-45 46 80 126 0
-45 46 -80 -126 0
-45 -46 80 -126 0
-45 -46 -80 126 0
48 49 79 -128 0
48 49 -79 128 0
48 -49 79 128 0
48 -49 -79 -128 0
-48 49 79 128 0
-48 49 -79 -128 0
-48 -49 79 -128 0
-48 -49 -79 128 0
51 52 78 -130 0
51 52 -78 130 0
51 -52 78 130 0
51 -52 -78 -130 0
-51 52 78 130 0
-51 52 -78 -130 0
-51 -52 78 -130 0
-51 -52 -78 130 0
54 55 77 -132 0
54 55 -77 132 0
54 -55 77 132 0
54 -55 -77 -132 0
-54 55 77 132 0
-54 55 -77 -132 0
-54 -55 77 -132 0
-54 -55 -77 132 0
57 58 76 -134 0
57 58 -76 134 0
57 -58 76 134 0
57 -58 -76 -134 0
-57 58 76 134 0
-57 58 -76 -134 0
-57 -58 76 -134 0
-57 -58 -76 134 0
60 61 75 -136 0
60 61 -75 136 0
60 -61 75 136 0
60 -61 -75 -136 0
-60 61 75 136 0
-60 61 -75 -136 0
-60 -61 75 -136 0
-60 -61 -75 136 0
63 64 74 -138 0
63 64 -74 138 0
63 -64 74 138 0
63 -64 -74 -138 0
-63 64 74 138 0
-63 64 -74 -138 0
-63 -64 74 -138 0
-63 -64 -74 138 0
66 67 73 -140 0
66 67 -73 140 0
66 -67 73 140 0
66 -67 -73 -140 0
-66 67 73 140 0
-66 67 -73 -140 0
-66 -67 73 -140 0
-66 -67 -73 140 0
69 70 72 -142 0
69 70 -72 142 0
69 -70 72 142 0
69 -70 -72 -142 0
-69 70 72 142 0
-69 70 -72 -142 0
-69 -70 72 -142 0
-69 -70 -72 142 0
-72 -144 0
72 144 0
-143 -144 145 0
143 -145 0
144 -145 0
141 142 -146 0
141 145 -146 0
-142 -145 146 0
142 145 -146 0
-141 -145 146 0
-141 -142 146 0
139 140 -147 0
139 146 -147 0
-140 -146 147 0
140 146 -147 0
-139 -146 147 0
-139 -140 147 0
137 138 -148 0
137 147 -148 0
-138 -147 148 0
138 147 -148 0
-137 -147 148 0
-137 -138 148 0
135 136 -149 0
135 148 -149 0
-136 -148 149 0
136 148 -149 0
-135 -148 149 0
-135 -136 149 0
133 134 -150 0
133 149 -150 0
-134 -149 150 0
134 149 -150 0
-133 -149 150 0
-133 -134 150 0
131 132 -151 0
131 150 -151 0
-132 -150 151 0
132 150 -151 0
-131 -150 151 0
-131 -132 151 0
129 130 -152 0
129 151 -152 0
-130 -151 152 0
130 151 -152 0
-129 -151 152 0
-129 -130 152 0
127 128 -153 0
127 152 -153 0
-128 -152 153 0
128 152 -153 0
-127 -152 153 0
-127 -128 153 0
125 126 -154 0
125 153 -154 0
-126 -153 154 0
126 153 -154 0
-125 -153 154 0
-125 -126 154 0
123 124 -155 0
123 154 -155 0
-124 -154 155 0
124 154 -155 0
-123 -154 155 0
-123 -124 155 0
121 122 -156 0
121 155 -156 0
-122 -155 156 0
122 155 -156 0
-121 -155 156 0
-121 -122 156 0
119 120 -157 0
119 156 -157 0
-120 -156 157 0
120 156 -157 0
-119 -156 157 0
-119 -120 157 0
117 118 -158 0
117 157 -158 0
-118 -157 158 0
118 157 -158 0
-117 -157 158 0
-117 -118 158 0
115 116 -159 0
115 158 -159 0
-116 -158 159 0
116 158 -159 0
-115 -158 159 0
-115 -116 159 0
113 114 -160 0
113 159 -160 0
-114 -159 160 0
114 159 -160 0
-113 -159 160 0
-113 -114 160 0
111 112 -161 0
111 160 -161 0
-112 -160 161 0
112 160 -161 0
-111 -160 161 0
-111 -112 161 0
109 110 -162 0
109 161 -162 0
-110 -161 162 0
110 161 -162 0
-109 -161 162 0
-109 -110 162 0
107 108 -163 0
107 162 -163 0
-108 -162 163 0
108 162 -163 0
-107 -162 163 0
-107 -108 163 0
105 106 -164 0
105 163 -164 0
-106 -163 164 0
106 163 -164 0
-105 -163 164 0
-105 -106 164 0
103 104 -165 0
103 164 -165 0
-104 -164 165 0
104 164 -165 0
-103 -164 165 0
-103 -104 165 0
101 102 -166 0
101 165 -166 0
-102 -165 166 0
102 165 -166 0
-101 -165 166 0
-101 -102 166 0
99 100 -167 0
99 166 -167 0
-100 -166 167 0
100 166 -167 0
-99 -166 167 0
-99 -100 167 0
97 98 -168 0
97 167 -168 0
-98 -167 168 0
98 167 -168 0
-97 -167 168 0
-97 -98 168 0
1 96 168 -169 0
1 96 -168 169 0
1 -96 168 169 0
1 -96 -168 -169 0
-1 96 168 169 0
-1 96 -168 -169 0
-1 -96 168 -169 0
-1 -96 -168 169 0
169 0
